data;


param d:= 100;
param r:=5;
param p:=0.100000;
param M:=1000;
param U:=
         1         1        2.803912e-01
         2         1        1.256010e-01
         3         1       -2.217687e-01
         4         1        1.432660e+00
         5         1       -1.569346e+00
         6         1        4.481913e-01
         7         1       -5.304701e-01
         8         1       -2.582568e-01
         9         1        1.688627e-01
        10         1       -1.328549e+00
        11         1        1.640207e-02
        12         1       -6.810792e-02
        13         1       -5.405885e-01
        14         1       -1.965499e-01
        15         1       -3.794447e-01
        16         1       -6.353355e-01
        17         1        7.338324e-01
        18         1       -7.641428e-01
        19         1       -1.027746e+00
        20         1       -9.775606e-01
        21         1       -7.567419e-02
        22         1        3.566296e-01
        23         1        2.350870e+00
        24         1        1.288141e+00
        25         1       -3.206564e-01
        26         1        3.208229e-01
        27         1        3.869257e-02
        28         1        1.988568e-01
        29         1       -2.248624e-01
        30         1        2.225520e+00
        31         1        2.161843e+00
        32         1       -5.015731e-01
        33         1        3.557604e-02
        34         1        4.117348e-02
        35         1       -1.425977e+00
        36         1        1.160833e+00
        37         1        1.809979e+00
        38         1        1.165762e+00
        39         1        3.104499e-01
        40         1       -5.577726e-02
        41         1       -1.257826e+00
        42         1        9.185429e-01
        43         1        6.570120e-01
        44         1       -4.695391e-01
        45         1        1.835509e-01
        46         1       -2.115438e-01
        47         1        3.525949e-01
        48         1        5.280711e-01
        49         1        3.194293e-01
        50         1        8.209975e-01
        51         1       -4.266680e-01
        52         1        1.256223e+00
        53         1        1.580765e-01
        54         1        8.555374e-01
        55         1        7.133624e-01
        56         1       -3.473211e-02
        57         1       -6.794827e-01
        58         1        9.401419e-01
        59         1        1.360897e+00
        60         1       -1.007537e+00
        61         1       -4.328369e-01
        62         1       -1.385989e+00
        63         1       -4.382996e-01
        64         1        2.067784e-01
        65         1        7.607724e-01
        66         1        4.312935e-01
        67         1        6.337074e-02
        68         1       -3.403372e-01
        69         1        1.365047e-01
        70         1       -3.098636e-01
        71         1       -8.801144e-01
        72         1       -1.498809e+00
        73         1        3.024571e-01
        74         1        8.092900e-01
        75         1       -9.153193e-01
        76         1        2.607599e-02
        77         1        6.184156e-01
        78         1        1.127809e+00
        79         1       -1.910397e+00
        80         1        6.409094e-01
        81         1        1.916756e-01
        82         1       -6.646405e-01
        83         1        1.251482e+00
        84         1       -4.347181e-01
        85         1       -2.927730e-01
        86         1        4.788500e-01
        87         1       -1.848558e+00
        88         1       -7.678482e-01
        89         1        2.578418e-01
        90         1        1.083780e+00
        91         1       -7.832804e-01
        92         1       -1.529590e+00
        93         1        1.660761e-01
        94         1       -8.196356e-01
        95         1        5.095038e-01
        96         1        1.522317e+00
        97         1       -1.037286e+00
        98         1        3.435448e-02
        99         1        5.791542e-01
       100         1       -1.561584e+00
         1         2        4.419661e-02
         2         2        1.407053e+00
         3         2       -9.788536e-01
         4         2        1.112246e+00
         5         2       -1.213738e+00
         6         2        3.359989e-03
         7         2        6.141908e-02
         8         2       -1.056844e+00
         9         2       -1.433163e+00
        10         2       -1.357914e+00
        11         2        5.419906e-01
        12         2       -1.576123e+00
        13         2        4.214307e-01
        14         2       -3.763199e-01
        15         2        6.096568e-01
        16         2       -5.550791e-01
        17         2        1.158913e+00
        18         2        4.677700e-01
        19         2       -1.986999e+00
        20         2        3.657277e-02
        21         2       -2.722360e-01
        22         2        1.612334e+00
        23         2        4.310478e-01
        24         2       -8.665787e-01
        25         2        1.335632e+00
        26         2       -2.023829e-01
        27         2       -9.062911e-01
        28         2        5.765116e-01
        29         2       -7.783127e-02
        30         2       -1.555032e+00
        31         2       -5.983239e-01
        32         2        6.041715e-01
        33         2        1.145833e+00
        34         2       -2.125740e-01
        35         2        8.010846e-01
        36         2       -1.863047e+00
        37         2        3.859612e-01
        38         2        1.136508e+00
        39         2        9.298333e-01
        40         2        6.567040e-01
        41         2       -1.738661e+00
        42         2       -2.446459e-01
        43         2       -4.689107e-01
        44         2        1.627190e+00
        45         2       -1.221470e+00
        46         2        1.351922e+00
        47         2       -1.082079e+00
        48         2       -2.707959e-02
        49         2       -9.372013e-01
        50         2       -3.623684e-01
        51         2        1.902429e+00
        52         2       -2.292922e+00
        53         2       -1.818187e+00
        54         2       -8.130468e-02
        55         2        1.055703e+00
        56         2       -9.963947e-01
        57         2       -5.069862e-01
        58         2        2.430182e-01
        59         2        1.309904e-01
        60         2       -1.136108e+00
        61         2        1.088474e+00
        62         2        6.571610e-01
        63         2       -1.339680e+00
        64         2       -5.399402e-01
        65         2       -1.968012e+00
        66         2       -1.010857e-01
        67         2        3.207377e-01
        68         2        6.557926e-01
        69         2        4.506826e-01
        70         2       -1.719257e-01
        71         2       -9.339472e-01
        72         2       -1.293827e+00
        73         2       -7.236157e-01
        74         2        1.433357e+00
        75         2        3.389031e-01
        76         2       -9.511419e-03
        77         2        3.762531e-01
        78         2        1.859372e-01
        79         2        7.152004e-02
        80         2       -8.491030e-01
        81         2        2.226403e-01
        82         2       -1.017044e+00
        83         2        9.294519e-01
        84         2       -9.897643e-01
        85         2       -1.485667e-01
        86         2        1.793434e+00
        87         2        2.677004e-01
        88         2        8.670200e-01
        89         2        6.306404e-01
        90         2       -6.724807e-01
        91         2        3.026261e-02
        92         2        1.644239e+00
        93         2       -1.731378e+00
        94         2        7.978217e-01
        95         2        4.766221e-01
        96         2        5.209423e-01
        97         2        8.770534e-02
        98         2        7.281935e-01
        99         2        5.899203e-01
       100         2        1.947546e-01
         1         3        2.538040e-01
         2         3        7.102245e-02
         3         3       -5.049076e-01
         4         3        1.095001e+00
         5         3       -8.172009e-02
         6         3       -1.067563e+00
         7         3        5.813007e-01
         8         3        1.271188e+00
         9         3        3.393737e-02
        10         3       -2.844228e-01
        11         3       -9.922789e-02
        12         3       -9.726052e-01
        13         3       -1.883255e+00
        14         3        9.042097e-01
        15         3       -1.141717e-01
        16         3       -3.864967e-01
        17         3        4.528098e-01
        18         3        2.900180e-01
        19         3       -6.281374e-01
        20         3       -3.330548e-01
        21         3       -2.117300e+00
        22         3        1.091247e+00
        23         3        8.968839e-01
        24         3        1.120163e+00
        25         3       -1.243387e+00
        26         3        3.956262e-01
        27         3       -1.684899e+00
        28         3       -8.329540e-02
        29         3       -8.163679e-01
        30         3        1.660093e+00
        31         3       -1.934547e-01
        32         3       -1.771124e+00
        33         3       -2.444601e+00
        34         3        1.714886e+00
        35         3       -3.385283e-01
        36         3        6.995088e-01
        37         3        6.349141e-01
        38         3       -6.433003e-01
        39         3        9.175906e-01
        40         3        5.442291e-02
        41         3        4.994462e-01
        42         3       -1.368104e+00
        43         3        4.198732e-01
        44         3        3.339866e-01
        45         3       -1.274199e-01
        46         3       -9.736615e-01
        47         3        8.739022e-01
        48         3       -6.738215e-01
        49         3       -1.658081e+00
        50         3        5.187929e-01
        51         3        1.481537e+00
        52         3        5.024112e-01
        53         3       -3.873029e-01
        54         3       -1.173666e+00
        55         3       -1.068061e+00
        56         3        1.222898e-01
        57         3        1.207375e+00
        58         3        9.173434e-01
        59         3        1.419094e+00
        60         3       -1.582339e+00
        61         3        2.060619e-01
        62         3        4.288521e-01
        63         3        7.169305e-01
        64         3        3.451858e-01
        65         3        2.977798e-01
        66         3        2.348068e-01
        67         3        2.776935e-01
        68         3        9.981793e-01
        69         3        1.226526e-02
        70         3        2.847988e-01
        71         3       -9.498453e-01
        72         3        2.136165e-01
        73         3       -8.804292e-01
        74         3        1.653508e+00
        75         3       -1.051471e+00
        76         3        2.466857e-01
        77         3        1.118084e+00
        78         3       -1.498760e+00
        79         3       -9.996887e-01
        80         3       -5.524915e-01
        81         3       -7.789683e-01
        82         3       -1.091557e+00
        83         3       -1.738056e-01
        84         3       -4.976158e-01
        85         3        1.942980e+00
        86         3       -2.541148e-01
        87         3        5.639433e-01
        88         3       -6.276364e-01
        89         3       -9.161621e-01
        90         3       -2.746387e-01
        91         3       -8.235727e-01
        92         3       -1.058506e+00
        93         3       -1.180028e+00
        94         3        3.148071e-01
        95         3       -1.073776e+00
        96         3       -2.038749e+00
        97         3        1.243357e+00
        98         3        2.493436e-01
        99         3       -3.252510e-01
       100         3       -1.662229e+00
         1         4        3.339604e-02
         2         4       -2.355304e+00
         3         4       -7.652269e-02
         4         4       -2.027983e-02
         5         4       -1.030250e+00
         6         4        1.932509e+00
         7         4        1.174385e+00
         8         4       -1.168126e-01
         9         4       -7.249443e-01
        10         4        1.289384e-02
        11         4       -7.528231e-01
        12         4       -2.018595e+00
        13         4        1.834931e+00
        14         4       -5.420254e-01
        15         4        9.531408e-01
        16         4        3.032947e-01
        17         4       -1.863814e-01
        18         4       -1.231750e+00
        19         4        1.191525e+00
        20         4       -1.079456e+00
        21         4        6.591427e-01
        22         4       -5.324538e-01
        23         4        1.353506e-01
        24         4        9.966036e-01
        25         4        2.305740e+00
        26         4       -4.757671e-01
        27         4       -6.235859e-01
        28         4        3.730704e-01
        29         4       -2.021367e+00
        30         4        1.085501e+00
        31         4       -1.103291e+00
        32         4        9.212147e-01
        33         4       -7.834367e-01
        34         4       -3.875939e-01
        35         4        3.658173e-01
        36         4        2.128980e-02
        37         4       -3.052411e-01
        38         4       -1.309902e+00
        39         4       -1.383928e+00
        40         4       -2.080009e-01
        41         4       -9.283892e-02
        42         4       -2.061178e+00
        43         4        1.023532e+00
        44         4        4.843841e-01
        45         4       -8.602844e-01
        46         4       -2.102861e+00
        47         4       -3.450633e-01
        48         4       -9.073395e-01
        49         4        1.650771e-01
        50         4        1.281196e+00
        51         4        1.565000e-01
        52         4       -6.654414e-01
        53         4       -1.227580e+00
        54         4       -1.744671e+00
        55         4       -4.206391e-01
        56         4       -1.788574e-01
        57         4       -1.726707e-01
        58         4       -1.501804e-01
        59         4        2.338425e-01
        60         4        2.105802e-01
        61         4        3.800299e-01
        62         4       -9.663712e-01
        63         4       -1.519542e+00
        64         4       -1.175714e+00
        65         4       -7.863188e-01
        66         4       -3.378954e-01
        67         4        1.277361e-01
        68         4        2.483185e+00
        69         4        3.850476e-01
        70         4       -8.548654e-01
        71         4       -1.136042e+00
        72         4       -1.731473e+00
        73         4        1.533416e+00
        74         4       -2.050761e+00
        75         4        2.751761e-01
        76         4        4.353715e-01
        77         4        1.162752e+00
        78         4       -5.437049e-01
        79         4       -1.523429e+00
        80         4       -1.788065e+00
        81         4        1.739035e-01
        82         4       -5.356458e-01
        83         4       -1.063982e+00
        84         4       -7.430708e-01
        85         4        1.269546e+00
        86         4       -4.829319e-01
        87         4        1.190214e+00
        88         4        1.696576e-01
        89         4        8.766029e-01
        90         4       -1.068579e+00
        91         4        3.839493e-02
        92         4        1.818178e-01
        93         4        8.860907e-01
        94         4        9.073759e-01
        95         4        2.326839e-01
        96         4       -2.299913e-01
        97         4       -7.183667e-01
        98         4        1.270015e-02
        99         4       -1.240093e+00
       100         4       -1.533235e+00
         1         5        1.592454e+00
         2         5       -1.481679e-01
         3         5       -1.036980e-01
         4         5        1.562814e+00
         5         5        1.195155e+00
         6         5        1.038620e+00
         7         5       -1.181838e+00
         8         5        2.929311e-01
         9         5        8.121261e-02
        10         5        2.855296e-01
        11         5       -7.352868e-01
        12         5       -1.004754e+00
        13         5       -3.445888e-01
        14         5       -4.530307e-01
        15         5       -6.988203e-01
        16         5        4.363327e-01
        17         5       -7.721412e-02
        18         5        2.431234e-01
        19         5       -1.394715e+00
        20         5       -1.526480e+00
        21         5       -1.827403e+00
        22         5        6.794007e-02
        23         5       -1.568725e+00
        24         5        8.361408e-01
        25         5        2.000344e+00
        26         5        1.264441e+00
        27         5        8.562098e-01
        28         5        5.560437e-01
        29         5       -8.273297e-01
        30         5        9.175544e-01
        31         5       -4.934705e-02
        32         5        4.451624e-02
        33         5       -7.775239e-01
        34         5       -5.115817e-01
        35         5        9.170944e-01
        36         5        7.154406e-01
        37         5       -4.463826e-01
        38         5       -4.427413e-01
        39         5       -7.412789e-01
        40         5       -1.334735e+00
        41         5        1.035594e+00
        42         5        3.870594e-01
        43         5        4.717772e-01
        44         5        8.817877e-02
        45         5       -2.024635e+00
        46         5       -6.377469e-01
        47         5        3.782376e-02
        48         5       -1.009590e+00
        49         5        1.463855e+00
        50         5       -7.934372e-01
        51         5        3.029661e-01
        52         5        1.146562e+00
        53         5        4.860949e-01
        54         5       -5.721791e-01
        55         5        3.754782e-01
        56         5        2.928849e+00
        57         5       -2.372474e+00
        58         5        2.669195e-01
        59         5       -4.255256e-01
        60         5       -6.341663e-02
        61         5        2.417796e-01
        62         5       -3.750264e-01
        63         5        1.817341e-02
        64         5        3.780288e-01
        65         5       -1.302611e+00
        66         5       -1.162542e+00
        67         5       -5.378500e-01
        68         5        4.935754e-02
        69         5       -1.115906e+00
        70         5        1.189202e+00
        71         5       -1.726471e+00
        72         5        1.627425e-01
        73         5       -1.839190e+00
        74         5        1.315335e+00
        75         5        1.533370e+00
        76         5        1.558478e+00
        77         5       -1.242123e+00
        78         5       -5.282124e-01
        79         5       -5.953665e-01
        80         5       -1.244606e+00
        81         5       -8.111824e-01
        82         5       -2.248677e-01
        83         5       -3.711617e-01
        84         5        1.263582e+00
        85         5        1.235546e+00
        86         5        4.025855e-02
        87         5       -2.395462e-01
        88         5       -6.019698e-02
        89         5       -3.066672e-01
        90         5       -7.084529e-01
        91         5       -1.765268e+00
        92         5        1.430398e+00
        93         5        1.092851e+00
        94         5       -1.414059e+00
        95         5        8.988843e-01
        96         5       -6.541438e-01
        97         5       -9.410884e-01
        98         5       -7.269601e-03
        99         5       -3.273227e-01
       100         5        7.387870e-01
;

param theta:=
    1        8.402001e-01
    2       -9.900631e-02
    3        1.299371e-01
    4       -2.361541e-01
    5       -1.182384e+00
;
param X_true:=
    1       -1.626009e+00
    2        7.069126e-01
    3       -1.426971e-02
    4       -6.056036e-01
    5       -2.379337e+00
    6       -1.447352e+00
    7        7.451284e-01
    8       -2.653543e-01
    9        3.636249e-01
   10       -1.357973e+00
   11        9.946241e-01
   12        1.636278e+00
   13       -7.662374e-01
   14        6.546425e-01
   15        2.075471e-01
   16       -1.116221e+00
   17        6.965647e-01
   18       -6.476827e-01
   19        6.197942e-01
   20        1.191698e+00
   21        1.694021e+00
   22        3.273571e-01
   23        3.872293e+00
   24        8.892058e-02
   25       -3.472703e+00
   26       -1.040568e+00
   27       -9.616502e-01
   28       -6.478208e-01
   29        1.168508e+00
   30        8.977800e-01
   31        2.169301e+00
   32       -9.823280e-01
   33        7.034252e-01
   34        9.739798e-01
   35       -2.491282e+00
   36        4.001266e-01
   37        2.165938e+00
   38        1.616940e+00
   39        1.492469e+00
   40        1.522898e+00
   41       -2.024272e+00
   42        6.474857e-01
   43       -1.484131e-01
   44       -7.320091e-01
   45        2.855059e+00
   46        8.128859e-01
   47        5.542461e-01
   48        1.769074e+00
   49       -1.621836e+00
   50        1.428269e+00
   51       -7.500488e-01
   52        1.478997e-01
   53       -2.242373e-02
   54        1.663512e+00
   55        1.123110e-02
   56       -3.334585e+00
   57        2.481033e+00
   58        6.062799e-01
   59        1.762246e+00
   60       -9.157730e-01
   61       -8.214621e-01
   62       -5.016850e-01
   63        1.944271e-01
   64        1.026786e-01
   65        2.599492e+00
   66        1.857995e+00
   67        6.631508e-01
   68       -8.649490e-01
   69        1.300955e+00
   70       -1.411093e+00
   71        1.539778e+00
   72       -8.889834e-01
   73        2.024039e+00
   74       -3.192571e-01
   75       -2.818707e+00
   76       -1.890620e+00
   77        1.822881e+00
   78        1.488593e+00
   79       -6.777786e-01
   80        2.444516e+00
   81        9.575841e-01
   82       -2.069038e-01
   83        1.627866e+00
   84       -1.649824e+00
   85       -1.738579e+00
   86        2.580768e-01
   87       -1.504723e+00
   88       -7.822491e-01
   89        1.905425e-01
   90        2.031697e+00
   91        1.309405e+00
   92       -3.319876e+00
   93       -1.344943e+00
   94        7.314268e-01
   95       -8.753297e-01
   96        1.791398e+00
   97        5.625542e-01
   98       -5.312833e-03
   99        1.066321e+00
  100       -2.057051e+00
;
param X:=
    1       -1.626009e+00
    2        7.069126e-01
    3       -1.426971e-02
    4       -6.056036e-01
    5       -2.379337e+00
    6       -1.447352e+00
    7        7.451284e-01
    8       -2.653543e-01
    9        1.359392e+00
   10       -1.357973e+00
   11        9.946241e-01
   12        1.636278e+00
   13       -7.662374e-01
   14        6.546425e-01
   15        2.075471e-01
   16       -1.116221e+00
   17        6.965647e-01
   18       -6.476827e-01
   19        6.197942e-01
   20        1.191698e+00
   21        1.694021e+00
   22        3.273571e-01
   23        6.417446e-01
   24        8.892058e-02
   25       -3.472703e+00
   26       -1.040568e+00
   27       -9.616502e-01
   28       -6.478208e-01
   29        1.168508e+00
   30        8.977800e-01
   31        2.169301e+00
   32       -9.823280e-01
   33        7.034252e-01
   34        9.739798e-01
   35       -2.075966e+00
   36       -1.070254e+00
   37        2.165938e+00
   38        1.616940e+00
   39        1.492469e+00
   40        1.522898e+00
   41       -2.024272e+00
   42        6.474857e-01
   43       -1.484131e-01
   44       -7.320091e-01
   45        2.855059e+00
   46        8.128859e-01
   47        5.542461e-01
   48        1.769074e+00
   49       -1.621836e+00
   50        1.428269e+00
   51       -7.500488e-01
   52        1.478997e-01
   53       -2.242373e-02
   54        1.663512e+00
   55        1.123110e-02
   56       -3.334585e+00
   57        2.481033e+00
   58        6.062799e-01
   59        1.762246e+00
   60       -9.157730e-01
   61       -8.214621e-01
   62       -5.016850e-01
   63        1.944271e-01
   64        1.026786e-01
   65        2.521110e-01
   66        1.857995e+00
   67        6.631508e-01
   68       -2.198546e-01
   69        1.300955e+00
   70       -1.411093e+00
   71        1.539778e+00
   72       -8.889834e-01
   73        2.024039e+00
   74       -3.192571e-01
   75       -2.818707e+00
   76       -1.890620e+00
   77        1.822881e+00
   78        1.488593e+00
   79        1.213692e+00
   80        2.444516e+00
   81        9.575841e-01
   82       -2.069038e-01
   83        1.627866e+00
   84       -1.649824e+00
   85       -1.738579e+00
   86       -1.054646e+00
   87       -1.504723e+00
   88       -7.822491e-01
   89        1.905425e-01
   90       -1.824114e+00
   91        1.309405e+00
   92       -3.319876e+00
   93       -1.344943e+00
   94        7.314268e-01
   95       -8.753297e-01
   96        1.791398e+00
   97        5.625542e-01
   98       -5.312833e-03
   99        1.066321e+00
  100        6.051369e-01
;
param outliervec:=
    1    0
    2    0
    3    0
    4    0
    5    0
    6    0
    7    0
    8    0
    9    1
   10    0
   11    0
   12    0
   13    0
   14    0
   15    0
   16    0
   17    0
   18    0
   19    0
   20    0
   21    0
   22    0
   23    1
   24    0
   25    0
   26    0
   27    0
   28    0
   29    0
   30    0
   31    0
   32    0
   33    0
   34    0
   35    1
   36    1
   37    0
   38    0
   39    0
   40    0
   41    0
   42    0
   43    0
   44    0
   45    0
   46    0
   47    0
   48    0
   49    0
   50    0
   51    0
   52    0
   53    0
   54    0
   55    0
   56    0
   57    0
   58    0
   59    0
   60    0
   61    0
   62    0
   63    0
   64    0
   65    1
   66    0
   67    0
   68    1
   69    0
   70    0
   71    0
   72    0
   73    0
   74    0
   75    0
   76    0
   77    0
   78    0
   79    1
   80    0
   81    0
   82    0
   83    0
   84    0
   85    0
   86    1
   87    0
   88    0
   89    0
   90    1
   91    0
   92    0
   93    0
   94    0
   95    0
   96    0
   97    0
   98    0
   99    0
  100    1
;